%nprocshared=24
%mem=24GB
%chk=with_proton.chk
#p opt freq=noraman def2svp pbe1pbe em=gd3bj integral=ultrafinegrid

with_proton

1 1
C        0.14813714       2.26098136      -1.21327111      
C        0.27158330       0.72057847      -1.14578037      
C        0.57121413       0.17958035      -2.56959274      
B        1.56195960       0.27970182      -0.27389830      
C        2.57850262       1.14504620       0.52530082      
C        3.95714912       0.96071869      -0.11981153      
C        4.42008576      -0.52568104      -0.13686451      
C        3.28905824      -1.51089672      -0.51261648      
C        1.93782017      -1.16554877       0.17309406      
C        2.11461398      -0.98312139       1.69846306      
C        2.51424393       0.51562978       1.92785403      
N       -0.99239411       0.11451645      -0.56315144      
C       -1.27986236       0.53815930       0.82489514      
C       -1.87205039      -0.58606633       1.67782968      
C       -3.38535148      -0.49457804       1.95566178      
C       -4.29824644       0.01554261       0.84745622      
C       -4.36925482      -0.89294740      -0.40775516      
C       -3.07712882      -1.08903622      -1.20623924      
C       -2.19127000       0.18675180      -1.41057918      
H        1.05030988       2.70319563      -1.67537055      
H        0.01602426       2.71122941      -0.22393635      
H       -0.74343307       2.56556126      -1.82313960      
H        0.38280290      -0.91592067      -2.59900364      
H        1.60035580       0.37585496      -2.85828563      
H       -0.06330826       0.67917144      -3.37044945      
H        2.30674503       2.23884447       0.58239393      
H        3.92844061       1.34169931      -1.16694372      
H        4.72145713       1.59118994       0.41802030      
H        5.24515106      -0.62804457      -0.87928398      
H        4.85382951      -0.78150860       0.84738967      
H        3.60457778      -2.52429355      -0.20163853      
H        3.14598438      -1.53639708      -1.61672715      
H        1.16184320      -1.91062345      -0.06430087      
H        1.14143813      -1.19428771       2.20778655      
H        2.86547985      -1.68262977       2.11831914      
H        1.76310351       1.02470386       2.56156078      
H        3.49914450       0.56597454       2.43641829      
H       -0.36517214       0.88750530       1.38830842      
H       -1.91879161       1.47041947       0.85165188      
H       -1.36771678      -0.60100977       2.66833833      
H       -1.62569368      -1.58499587       1.23619994      
H       -3.76250351      -1.48212743       2.32465956      
H       -3.52590436       0.19294602       2.83363051      
H       -5.32521476       0.05746537       1.25579863      
H       -4.06643904       1.07180092       0.55861676      
H       -4.75272066      -1.87918753      -0.11827362      
H       -5.11758983      -0.43550464      -1.09102840      
H       -3.36000657      -1.47427183      -2.21432866      
H       -2.47828917      -1.90414977      -0.78950051      
H       -1.96831357       0.21431742      -2.47347215      
H       -2.76511607       1.12161148      -1.24587425      
H       -0.77495674      -0.96299621      -0.52207261      

--Link1--
%nprocshared=24
%mem=24GB
%chk=with_proton.chk
#p def2tzvp pbe1pbe integral=ultrafinegrid geom=allcheck guess=read em=gd3bj

